139
1000000
160882
201844
61853
299072
72467
31496
116826
2376
87935
21126
51055
274366
386522
493969
421066
87148
376682
335862
340946
453106
455399
15730
247281
289425
93909
62348
49097
381147
206693
409359
154136
58369
166611
129929
2178
297491
255757
192082
341416
113574
158182
425261
57004
282202
446460
248326
211114
264692
228860
465632
334166
433856
383176
78519
16184
47069
336306
269584
359743
336057
141692
142705
184914
413133
177559
320292
347065
5064
453872
111724
198988
68255
30623
164141
294518
410237
451525
186756
25865
3080
135926
31288
495900
216380
425392
116595
230358
16684
26772
399408
94056
60918
25882
272283
327832
132165
19064
314276
288508
61348
83
46686
389374
56527
92869
181761
228781
184255
110206
366150
132613
257425
405893
281443
181975
335047
391996
135465
71117
112903
4455
95084
362502
80831
363008
330009
32753
372441
48196
323131
363455
233891
357073
448547
82320
346617
158983
382807
247362
